22      4       
7       10      10      10      
0       0       0       0       0       3       2       3       4       
9       0       0       7       2       3       5       11      18      
9       2       5       6       8       1       6       
5       0       0       0       1       2       7       9       
4       0       0       0       9       1       8       
6       0       0       0       1       3       7       9       10      
5       4       10      1       2       1       12      
4       0       0       0       4       1       9       
9       0       3       6       0       3       13      14      21      
1       0       0       9       0       2       11      21      
2       0       0       7       0       1       14      
4       7       0       0       0       1       15      
5       1       4       0       3       1       20      
4       0       9       0       0       1       16      
2       3       0       1       5       1       17      
1       0       0       8       0       1       19      
8       0       8       2       0       1       18      
6       1       0       5       0       1       22      
6       6       9       5       8       1       22      
10      4       0       0       4       1       22      
5       0       1       3       10      1       22      
0       0       0       0       0       0       
